LengthSchedulingHorizon=6815;
nAttributes=5;
SetupCosts=[[0, 0, 0, 0, 0], [1, 2, 0, 3, 0], [2, 2, 1, 3, 3], [0, 1, 1, 2, 0], [3, 3, 2, 1, 2], [0, 3, 0, 2, 2]];
SetupTimes=[[0, 0, 0, 0, 0], [3, 0, 3, 1, 3], [0, 1, 3, 2, 2], [3, 3, 3, 2, 3], [1, 2, 2, 1, 0], [3, 2, 3, 0, 2]];
nMachines=5;
MinCap=[0, 0, 0, 0, 0];
MaxCap=[6, 19, 18, 16, 6];

initState=[2, 1, 4, 2, 5];
nShifts=4;
ShiftStartTimes = [[0, 5026, 5179, 6367], [0, 0, 2559, 6155], [3528, 3722, 3781, 4312], [0, 507, 3233, 5077], [1811, 4445, 6013, 6723]];
ShiftEndTimes = [[0, 5104, 5860, 6661], [0, 0, 4330, 6520], [3700, 3745, 4031, 5563], [0, 2826, 4067, 5557], [3990, 5452, 6204, 6749]];
nJobs=200;
EligibleMachines = [{3, 5}, {1, 2, 4, 5}, {1, 3, 4, 5}, {3, 5}, {2, 5}, {1, 2, 3, 4, 5}, {2, 4, 5}, {1, 2, 3, 4}, {2, 4, 5}, {1, 2, 4}, {3, 5}, {2, 4}, {2, 3, 4, 5}, {1, 2, 3, 4}, {5}, {1, 3, 5}, {1, 3, 4}, {2, 3, 4, 5}, {1, 2, 3, 4}, {1, 4}, {2, 4}, {1, 3, 4, 5}, {4}, {3, 4, 5}, {2, 4}, {1}, {1, 2, 5}, {2, 3, 4}, {1, 3, 5}, {3}, {2, 3}, {3, 4, 5}, {1, 3, 4, 5}, {1, 2, 3, 4, 5}, {1, 2, 3, 4}, {1, 2}, {1, 2, 4}, {1, 4, 5}, {1, 3, 4, 5}, {1, 2, 3, 5}, {1, 4, 5}, {1, 2, 4, 5}, {1, 2}, {1, 2, 4, 5}, {3, 4}, {1, 2, 4}, {1, 2, 3, 4, 5}, {2, 3, 4}, {1, 2, 3, 4, 5}, {1}, {1, 3, 4, 5}, {1, 4, 5}, {1, 2, 3, 5}, {2, 3, 5}, {1, 2, 5}, {2, 3}, {1, 3, 4, 5}, {1, 3}, {3, 5}, {3, 4}, {2, 5}, {1, 2, 3}, {2, 3, 4, 5}, {3, 4, 5}, {1, 2, 3, 4, 5}, {1, 2, 3, 4, 5}, {2, 3, 5}, {2, 4, 5}, {1, 2, 4, 5}, {1, 2, 3}, {2, 3, 4, 5}, {1, 3, 4, 5}, {1, 2, 3}, {2, 5}, {2, 5}, {1, 2, 5}, {2, 3, 4}, {1, 3, 4}, {1, 2, 3, 4, 5}, {2, 3}, {1, 2, 4}, {5}, {1, 5}, {5}, {1, 2, 3, 4}, {1, 3}, {1, 4, 5}, {1, 3, 4, 5}, {3, 4, 5}, {1, 3}, {1, 5}, {2, 4}, {1, 3, 5}, {1, 2, 3, 4, 5}, {1, 2, 3, 4, 5}, {1, 2, 3, 4, 5}, {1, 2, 5}, {1, 3, 4}, {2, 3, 4}, {1, 3, 5}, {2, 4, 5}, {1, 4, 5}, {1, 2, 3, 5}, {1, 2, 3, 5}, {1, 3}, {1, 3, 4}, {3, 4, 5}, {1, 4}, {1, 2, 4, 5}, {1, 2, 3, 4, 5}, {1, 2, 3, 5}, {3, 4}, {1, 2, 4, 5}, {1, 3, 4, 5}, {2, 3, 4}, {2, 3, 4, 5}, {1, 3, 4, 5}, {2, 3, 4, 5}, {2, 3, 5}, {1, 2, 3, 4, 5}, {1, 2, 3, 4, 5}, {2, 4, 5}, {3, 4}, {1, 2, 3, 4}, {2, 3, 4, 5}, {2, 3, 4}, {1, 3, 5}, {4, 5}, {1, 3, 4}, {1, 2}, {1, 2, 3, 4, 5}, {3, 5}, {2, 3, 4}, {1, 5}, {1, 2, 3, 4}, {2, 3, 4, 5}, {2, 3, 4, 5}, {1, 3, 4, 5}, {1, 3, 5}, {4, 5}, {2, 3, 4, 5}, {1, 2, 4, 5}, {1, 3}, {1, 2, 3}, {2, 3}, {3, 4, 5}, {2, 4, 5}, {1, 3, 4}, {1, 3, 4}, {1, 3, 4, 5}, {1, 2, 5}, {3, 4}, {2, 3, 4}, {1, 2, 4}, {1, 2, 3}, {1, 2, 3, 4, 5}, {1, 2, 4, 5}, {1, 2, 3, 5}, {1, 2, 3, 5}, {1, 2, 3}, {1, 5}, {1, 4, 5}, {1, 2, 3, 4, 5}, {2, 4, 5}, {1, 4}, {5}, {2, 4, 5}, {3, 4, 5}, {1}, {1, 2, 4, 5}, {1, 2, 3, 4}, {1, 2, 3, 4, 5}, {1, 2, 3, 4}, {1, 2, 5}, {1, 2, 5}, {2, 4}, {2, 4, 5}, {1, 2, 5}, {1, 3, 5}, {1, 3, 4}, {2, 3, 4, 5}, {1, 2, 3, 5}, {2, 3}, {3, 5}, {1, 2, 4}, {2, 4, 5}, {1, 2, 4}, {1, 3, 4, 5}, {1, 3}, {1, 2, 3}, {1, 2, 3, 4, 5}, {1, 2, 3}, {2, 3, 4, 5}, {1, 2, 3, 4, 5}, {1, 3, 4}, {1, 3, 4}, {1, 4}, {2, 4, 5}, {3}, {2, 3}];
EarliestStart=[30, 37, 70, 32, 83, 97, 78, 85, 29, 6, 46, 65, 41, 19, 45, 85, 52, 92, 72, 0, 26, 44, 59, 104, 49, 15, 43, 82, 57, 69, 55, 76, 18, 26, 102, 66, 16, 74, 67, 2, 5, 88, 3, 11, 35, 63, 58, 4, 83, 17, 63, 39, 26, 63, 44, 94, 86, 74, 92, 67, 53, 105, 27, 69, 59, 78, 46, 15, 26, 88, 68, 86, 25, 70, 103, 47, 40, 47, 68, 95, 66, 39, 107, 40, 5, 16, 50, 63, 90, 7, 88, 50, 91, 0, 57, 9, 60, 43, 61, 66, 16, 43, 86, 104, 57, 85, 14, 65, 69, 106, 53, 39, 6, 106, 1, 14, 106, 96, 63, 43, 28, 92, 33, 19, 0, 18, 104, 25, 12, 94, 95, 106, 95, 1, 78, 23, 61, 3, 91, 29, 1, 93, 103, 93, 62, 48, 44, 93, 107, 43, 11, 73, 88, 18, 38, 33, 9, 67, 103, 39, 90, 98, 52, 83, 10, 55, 53, 4, 28, 87, 62, 103, 4, 34, 41, 43, 97, 49, 65, 60, 83, 10, 26, 78, 82, 22, 18, 76, 72, 44, 13, 103, 8, 52, 47, 12, 41, 19, 82, 6];
LatestEnd=[43, 40, 88, 45, 102, 104, 84, 101, 33, 19, 59, 73, 52, 29, 51, 100, 64, 104, 79, 5, 30, 58, 69, 119, 60, 16, 51, 88, 59, 81, 58, 85, 25, 32, 103, 69, 17, 76, 73, 10, 8, 99, 6, 16, 42, 72, 75, 10, 85, 21, 71, 42, 40, 71, 46, 99, 97, 79, 107, 75, 68, 117, 35, 82, 69, 91, 58, 20, 30, 97, 81, 89, 35, 79, 104, 57, 46, 54, 79, 103, 77, 40, 109, 42, 16, 23, 55, 64, 100, 10, 97, 59, 98, 17, 69, 10, 67, 44, 75, 77, 19, 48, 92, 113, 60, 95, 15, 73, 75, 115, 54, 51, 19, 107, 16, 19, 119, 108, 68, 48, 33, 97, 34, 22, 12, 28, 117, 34, 21, 99, 97, 110, 98, 14, 87, 35, 62, 5, 92, 44, 2, 98, 108, 105, 71, 59, 56, 94, 110, 45, 13, 81, 94, 22, 39, 42, 20, 70, 107, 58, 93, 101, 55, 86, 13, 61, 56, 13, 33, 97, 73, 112, 12, 35, 58, 50, 100, 61, 69, 65, 94, 15, 40, 91, 91, 23, 29, 84, 83, 55, 25, 120, 23, 59, 49, 15, 46, 33, 85, 13];
MinTime=[8, 2, 10, 7, 10, 4, 4, 9, 4, 9, 7, 7, 10, 8, 6, 9, 7, 7, 4, 3, 4, 9, 8, 10, 6, 1, 7, 5, 2, 8, 3, 8, 4, 5, 1, 2, 1, 2, 4, 8, 3, 6, 2, 4, 5, 6, 10, 6, 2, 3, 7, 2, 9, 5, 2, 3, 9, 5, 10, 7, 9, 10, 7, 8, 6, 7, 9, 3, 4, 8, 10, 2, 9, 9, 1, 9, 4, 6, 6, 7, 7, 1, 2, 2, 6, 4, 5, 1, 9, 2, 7, 6, 5, 9, 8, 1, 7, 1, 8, 6, 3, 5, 5, 5, 2, 7, 1, 7, 4, 6, 1, 8, 8, 1, 10, 4, 7, 10, 3, 4, 3, 5, 1, 2, 8, 8, 8, 8, 5, 5, 2, 4, 2, 7, 6, 8, 1, 2, 1, 9, 1, 3, 3, 9, 6, 10, 9, 1, 2, 2, 2, 7, 4, 4, 1, 7, 7, 2, 3, 10, 2, 2, 3, 2, 3, 5, 3, 8, 3, 6, 6, 5, 5, 1, 10, 6, 3, 8, 4, 4, 6, 3, 8, 8, 8, 1, 10, 7, 7, 9, 10, 10, 10, 6, 2, 2, 3, 10, 3, 6];
MaxTime=[10, 8, 10, 8, 10, 4, 8, 10, 6, 9, 7, 8, 10, 8, 6, 9, 10, 9, 8, 9, 9, 10, 8, 10, 6, 6, 8, 8, 7, 10, 7, 10, 6, 7, 3, 7, 1, 8, 4, 10, 7, 8, 5, 6, 5, 9, 10, 10, 2, 6, 9, 4, 9, 8, 8, 3, 10, 9, 10, 10, 9, 10, 9, 9, 7, 8, 9, 8, 5, 10, 10, 8, 9, 9, 9, 10, 5, 8, 6, 8, 10, 10, 10, 7, 10, 8, 5, 1, 9, 3, 9, 9, 9, 10, 10, 2, 8, 1, 8, 10, 4, 6, 6, 7, 6, 8, 5, 10, 6, 7, 6, 10, 8, 1, 10, 8, 8, 10, 5, 5, 7, 6, 8, 3, 8, 9, 8, 10, 8, 6, 6, 5, 2, 9, 6, 8, 3, 7, 5, 10, 9, 10, 10, 10, 6, 10, 9, 8, 4, 10, 6, 9, 9, 7, 2, 10, 9, 4, 6, 10, 3, 5, 10, 10, 6, 10, 10, 9, 7, 8, 8, 7, 10, 4, 10, 9, 10, 8, 5, 6, 8, 7, 10, 10, 9, 7, 10, 9, 10, 9, 10, 10, 10, 7, 8, 10, 4, 10, 10, 9];
JobSize=[3, 4, 4, 4, 4, 3, 1, 3, 2, 5, 2, 1, 5, 5, 1, 2, 3, 2, 5, 1, 4, 3, 4, 4, 5, 1, 4, 2, 5, 3, 5, 3, 2, 4, 1, 2, 1, 5, 3, 3, 2, 5, 4, 2, 1, 5, 4, 4, 3, 1, 5, 3, 2, 5, 1, 3, 2, 1, 3, 5, 3, 5, 5, 2, 4, 4, 5, 2, 1, 3, 3, 1, 4, 3, 4, 3, 5, 1, 5, 2, 3, 3, 5, 5, 1, 3, 4, 4, 4, 2, 4, 3, 4, 5, 5, 4, 3, 4, 1, 2, 2, 4, 4, 1, 1, 1, 1, 1, 5, 2, 1, 2, 5, 4, 4, 4, 4, 3, 2, 2, 3, 2, 4, 5, 2, 3, 1, 3, 1, 2, 2, 5, 1, 4, 3, 4, 5, 1, 4, 1, 3, 5, 3, 4, 5, 4, 2, 1, 5, 5, 4, 4, 2, 3, 3, 2, 3, 2, 2, 1, 1, 3, 4, 5, 5, 3, 4, 3, 3, 4, 4, 4, 1, 2, 5, 2, 5, 4, 5, 1, 3, 2, 3, 4, 1, 1, 4, 4, 3, 5, 2, 1, 2, 1, 2, 4, 5, 2, 3, 4];
Attribute=[3, 4, 1, 3, 4, 1, 5, 3, 4, 2, 3, 1, 2, 4, 4, 5, 2, 2, 5, 5, 2, 5, 5, 4, 1, 1, 5, 4, 3, 3, 3, 3, 2, 2, 1, 4, 2, 4, 5, 5, 1, 2, 2, 1, 2, 4, 1, 5, 3, 2, 5, 4, 1, 3, 3, 1, 5, 2, 3, 4, 4, 4, 1, 3, 2, 1, 5, 3, 2, 5, 4, 3, 3, 4, 1, 3, 2, 2, 4, 5, 2, 4, 5, 1, 4, 1, 2, 2, 5, 4, 5, 1, 3, 4, 4, 1, 5, 4, 1, 3, 3, 1, 3, 4, 4, 4, 2, 2, 1, 2, 1, 4, 3, 2, 2, 5, 1, 4, 1, 3, 5, 4, 3, 4, 1, 2, 3, 2, 1, 2, 1, 2, 1, 1, 2, 2, 4, 5, 3, 1, 5, 3, 1, 1, 4, 4, 4, 3, 4, 3, 5, 2, 5, 3, 3, 3, 3, 1, 1, 3, 3, 2, 2, 4, 5, 2, 5, 4, 5, 5, 4, 3, 4, 3, 2, 5, 1, 5, 3, 1, 4, 5, 1, 3, 2, 2, 3, 4, 3, 2, 5, 2, 5, 1, 5, 1, 3, 5, 4, 4];

upper_bound_integer_objective=6000;
mult_factor_total_runtime=2;
mult_factor_finished_toolate=12;
mult_factor_total_setuptimes=0;
mult_factor_total_setupcosts=2;
running_time_bound=1077;
min_duration=1;
max_duration=10;
max_setup_time=3;
max_setup_cost=3;
